unsat
(define-fun f ((x (_ BitVec 64))) (_ BitVec 64) (let ((_let_1 (bvnot x))) (if0 (bvand #b0000000000000000000000000000000000000000000000000000000000000001 _let_1) (bvxor x #b0000000000000000000000000000000000000000000000000000000000000010) _let_1)))
0.01user 0.00system 0:00.02elapsed 95%CPU (0avgtext+0avgdata 25396maxresident)k
0inputs+8outputs (0major+979minor)pagefaults 0swaps
